
Gurobi 12.0.2 (win64) logging started Thu Jun  5 10:50:18 2025

Set parameter LogFile to value "C:\Ioana\_uni\honours\slp\algorithm\Main_files\results\others\prox_tubules\Task_027_Sample002_irr_gurobi.log"
Gurobi Optimizer version 12.0.2 build v12.0.2rc0 (win64 - Windows 11.0 (26100.2))

CPU model: Intel(R) Core(TM) Ultra 5 125H, instruction set [SSE2|AVX|AVX2]
Thread count: 14 physical cores, 18 logical processors, using up to 18 threads

Non-default parameters:
TimeLimit  2200

Optimize a model with 47658 rows, 34811 columns and 147858 nonzeros
Model fingerprint: 0x10a3c3c9
Variable types: 17417 continuous, 17394 integer (17394 binary)
Coefficient statistics:
  Matrix range     [1e-04, 8e+04]
  Objective range  [3e-05, 9e-01]
  Bounds range     [1e+00, 1e+03]
  RHS range        [1e+00, 1e+00]
Presolve removed 31200 rows and 21849 columns
Presolve time: 0.32s
Presolved: 16458 rows, 12962 columns, 54693 nonzeros
Variable types: 6413 continuous, 6549 integer (6549 binary)

Root relaxation: objective 8.816946e-01, 1234 iterations, 0.07 seconds (0.12 work units)

    Nodes    |    Current Node    |     Objective Bounds      |     Work
 Expl Unexpl |  Obj  Depth IntInf | Incumbent    BestBd   Gap | It/Node Time

     0     0    0.88169    0    5          -    0.88169      -     -    0s
H    0     0                       2.0390245    0.88169  56.8%     -    0s
     0     0    0.89434    0    9    2.03902    0.89434  56.1%     -    0s
     0     0    0.91956    0    9    2.03902    0.91956  54.9%     -    0s
     0     0    1.20607    0    9    2.03902    1.20607  40.9%     -    0s
     0     0    1.20655    0    7    2.03902    1.20655  40.8%     -    0s
     0     0    1.75657    0    4    2.03902    1.75657  13.9%     -    0s
     0     0    1.75716    0    3    2.03902    1.75716  13.8%     -    0s

Cutting planes:
  Cover: 3
  MIR: 5
  Flow cover: 5
  Network: 1
  Relax-and-lift: 1

Explored 1 nodes (3730 simplex iterations) in 1.05 seconds (1.26 work units)
Thread count was 18 (of 18 available processors)

Solution count 1: 2.03902 

Optimal solution found (tolerance 1.00e-04)
Best objective 2.039024504723e+00, best bound 2.039024504723e+00, gap 0.0000%
